47 489
2 3 9 10 11 12 13 18 19 21 22 25 26 29 30 36 38 40 41 44
4 5 7 8 14 23 24 25 28 30 35 38 40 44 45 46
0 3 9 12 18 19 21 23 25 28 29 34 35 36 38 39 40 43 45 46
0 2 7 8 9 11 12 20 23 25 35 36 38 40 44
1 6 8 9 11 18 23 24 25 27 28 30 31 32 37 38 41 42 46
1 6 9 10 12 13 14 15 18 20 22 23 25 29 33 36 38 42 44 45
4 5 7 8 15 16 17 20 22 27 37 38 39 41
1 3 6 9 11 14 16 17 21 23 24 25 27 29 30 31 39 43
1 3 4 6 11 12 13 16 17 21 22 23 24 32 33 34 36 37 45
0 2 3 4 5 7 10 12 14 22 23 25 26 27 28 34 35 36 43 44
0 5 9 13 15 16 17 18 19 22 25 26 27 31 32 35 36 37 38 39 40 43 44 46
0 3 4 7 8 13 16 18 20 21 23 26 27 28 30 32 33 35 36 38 43
0 2 3 5 8 9 13 18 19 20 21 22 24 25 32 33 36 38 42 43 46
0 5 8 10 11 12 14 16 17 19 20 21 22 25 26 29 34 35 39 41
1 5 7 9 13 15 16 17 19 21 22 25 26 27 28 29 30 32 34 36 37 41 43 44 45 46
5 6 10 14 17 18 19 20 21 22 27 29 30 32 35 36 38 39 42 45 46
6 7 8 10 11 13 14 18 20 22 29 30 32 33 34 37 38 43 45
6 7 8 10 13 14 15 22 24 25 28 31 32 33 36 37 38 39 43 45
0 2 4 5 10 11 12 15 16 20 22 24 25 26 27 28 30 32 34 35 37 40 43
0 2 10 12 13 14 15 20 22 24 27 28 29 31 32 33 35 37 39 41 42 43 45 46
3 5 6 11 12 13 15 16 18 19 21 23 24 25 26 29 34 35 37 40 41 44 45 46
0 2 7 8 11 12 13 14 15 20 26 27 34 38 41 42 43 45
0 5 6 8 9 10 12 13 14 15 16 17 18 19 23 24 26 36 37 39 40 43 44
1 2 3 4 5 7 8 9 11 20 22 24 25 27 28 29 34 35 36 41 46
1 4 7 8 12 17 18 19 20 22 23 25 26 27 28 29 33 35 36 37 38 40 42 43 44 45 46
0 1 2 3 4 5 7 9 10 12 13 14 17 18 20 23 24 26 29 30 33 34 35 37 38 40 41 42 43 45 46
0 9 10 11 13 14 18 20 21 22 24 25 28 29 30 35 36 38 39 42 43 45 46
4 6 7 9 10 11 14 15 18 19 21 23 24 30 32 33 36 41 42 43 44
1 2 4 9 11 14 17 18 19 23 24 26 35 36 38 41 43 45 46
0 2 5 7 13 14 15 16 19 20 23 24 25 26 30 32 34 41 43 44 46
0 1 4 7 11 14 15 16 18 25 26 27 29 32 35 38 40 41 43 45
4 7 10 17 19 32 33 35 42 43 46
4 8 10 11 12 14 15 16 17 18 19 27 29 30 31 33 39 41 44 45 46
5 8 11 12 16 17 19 24 25 27 31 32 34 35 38 39 40 41 42 43 44 46
2 8 9 13 14 16 18 20 21 23 25 29 33 36 37 39 42 43 44 45
1 2 3 9 10 11 13 15 18 19 20 23 24 25 26 28 30 31 33 37 39 41 44 45
0 2 3 5 8 9 10 11 12 14 15 17 22 23 24 26 27 28 34 39 42
4 6 8 10 14 16 17 18 19 20 22 24 25 34 35 41 42 46
0 1 2 3 4 5 6 10 11 12 15 16 17 21 24 25 26 28 30 33 40 41 43
2 6 7 10 13 15 17 19 22 26 32 33 34 35 36 43 44
0 1 2 3 10 18 20 22 24 25 30 33 38 41 42 43
0 4 6 13 14 19 20 21 23 25 27 28 29 30 32 33 35 37 38 40 42 44
4 5 12 15 19 21 24 25 26 27 31 33 34 36 37 40 41 43 44 45 46
2 7 9 10 11 12 14 16 17 18 19 21 22 24 25 26 27 28 29 30 31 33 34 38 39 40 42 44 45 46
0 1 3 5 9 10 14 20 22 24 27 29 32 33 34 35 39 41 42 43 45
1 2 5 8 14 15 16 17 19 20 21 24 25 26 28 30 32 34 35 42 43 44
1 2 4 10 12 14 15 19 20 23 24 25 26 28 29 31 32 33 37 42 43
